/* Objective function */
min: - 0.0054fpdi - 0.0054fpdo + 0.05apdi + 0.05apdo + 0.0002pi + 0.0002po - 0.5fsi - 0.5fso;

apdi = 0.0 hi + -0.0 li + 11.88228 ri + -0.00556 ci + -1.79923 si + 0.0 ti + 0.11619 fTempIi + 0.00339 ami + -146.48357;
asi = 0.0 hi + 0.0 li + -4e-05 ri + -4e-05 ci + -1e-05 si + -0.0 ti + -7e-05 fTempIi + 3e-05 ami + 0.01054;
aTempOi = 0.0 hi + -0.0 li + 0.2834 ri + -0.02344 ci + -0.05616 si + 0.0 ti + 0.78884 fTempIi + -0.00011 ami + 6.95911;
fpdi = 0.0 hi + -0.0 li + 23.66278 ri + -19.88743 ci + -0.0542 si + 0.0 ti + -1.23887 fTempIi + 0.0001 ami + 660.07441;
fsi = 0.0 hi + 0.0 li + -0.0001 ri + -0.04524 ci + 2e-05 si + 0.0 ti + 0.00037 fTempIi + -0.0 ami + 2.90188;
fTempOi = 0.0 hi + 0.0 li + -0.28102 ri + 0.02339 ci + 0.05576 si + 0.0 ti + 0.22706 fTempIi + -9e-05 ami + 9.83264;
pi = 0.0 hi + -0.0 li + 614.03889 ri + 3.31111 ci + -55.06571 si + 0.0 ti + -0.0 fTempIi + -0.0 ami + 2139.06984;

apdo = 0.0 ho + 0.0 lo + 12.01429 ro + -0.00212 co + -1.81408 so + 0.0 to + 0.11265 fTempIo + 0.00347 amo + -149.03756;
aso = 0.0 ho + -0.0 lo + -6e-05 ro + -8e-05 co + -2e-05 so + 0.0 to + -0.00011 fTempIo + 3e-05 amo + 0.0122;
aTempOo = 0.0 ho + 0.0 lo + -0.29235 ro + 0.02683 co + 0.05787 so + 0.0 to + 0.7745 fTempIo + 0.00011 amo + -1.09422;
fpdo = 0.0 ho + 0.0 lo + 25.82353 ro + -23.20243 co + 0.06102 so + 0.0 to + -1.36577 fTempIo + -0.00012 amo + 732.11659;
fso = 0.0 ho + -0.0 lo + -0.0 ro + -0.05 co + -0.0 so + 0.0 to + -0.0 fTempIo + -0.0 amo + 3.05;
fTempOo = 0.0 ho + 0.0 lo + 0.28756 ro + -0.0272 co + -0.057 so + 0.0 to + 0.2298 fTempIo + 0.0001 amo + 12.99318;
po = 0.0 ho + 0.0 lo + 673.25 ro + 3.33333 co + -72.71714 so + 0.0 to + -0.0 fTempIo + 0.0 amo + 2696.87619;

/* Variable bounds */
aTempOi > 18.6;
1 =r6i + r8i + r10i + r12i + r14i;
ri =6r6i + 8r8i + 10r10i + 12r12i + 14r14i;
1 =s25i + s30i + s40i;
si =25s25i + 30s30i + 40s40i;
ti = 2;
apdi > 100;
apdi < 300;
asi > 0;
asi < 3;
aTempOi > 5;
aTempOi < 25;
fpdi > 100;
fpdi < 300;
fsi > 0;
fsi < 1.25;
fTempOi > 5;
fTempOi < 25;
pi > 0;
ri > 6;
ri < 14;
ci > 1;
ci < 38;
si > 25;
si < 60;
ti > 1;
ti < 3;
fTempIi > 5;
fTempIi < 25;

/* aTempOo < 11.4; */
1 =r6o + r8o + r10o + r12o + r14o;
ro =6r6o + 8r8o + 10r10o + 12r12o + 14r14o;
1 =s25o + s30o + s40o;
so =25s25o + 30s30o + 40s40o;
to = 1;
apdo > 100;
apdo < 300;
aso > 0;
aso < 3;
aTempOo > 5;
aTempOo < 25;
fpdo > 100;
fpdo < 300;
fso > 0;
fso < 1.25;
fTempOo > 5;
fTempOo < 25;
po > 0;
ro > 6;
ro < 14;
co > 1;
co < 35;
so > 25;
so < 60;
to > 1;
to < 3;
fTempIo > 5;
fTempIo < 25;
int hi,li,si,ti,ci,ri,ami;
int ho,lo,so,to,co,ro,amo;
bin s25i,s30i,s40i,s50i,s60i,r6i,r8i,r10i,r12i,r14i;
bin s25o,s30o,s40o,s50o,s60o,r6o,r8o,r10o,r12o,r14o;
